data;

param n:=26;
param p:=3;
param r:=[1] 0 [2] 1 [3] 3 [4] 1 [5] 7 [6] 1 [7] 14 [8] 9 [9] 9 [10] 22 [11] 2 [12] 14 [13] 21 [14] 32 [15] 25 [16] 2 [17] 11 [18] 33 [19] 7 [20] 44 [21] 38 [22] 17 [23] 37 [24] 25 [25] 2 [26] 29 ;
param w:=[1] 47 [2] 26 [3] 25 [4] 27 [5] 3 [6] 71 [7] 84 [8] 46 [9] 81 [10] 89 [11] 22 [12] 27 [13] 61 [14] 11 [15] 34 [16] 48 [17] 75 [18] 33 [19] 94 [20] 27 [21] 97 [22] 76 [23] 14 [24] 30 [25] 67 [26] 40 ;

end;
